c NETGEN flow network generator (C version)
c  Problem 3 input parameters
c  ---------------------------
c   Random seed:            13502460
c   Number of nodes:              60
c   Source nodes:                 48
c   Sink nodes:                   12
c   Number of arcs:              267
c   Minimum arc cost:              1
c   Maximum arc cost:            100
c   Total supply:                303
c   Transshipment -
c     Sources:                     0
c     Sinks:                       0
c   Skeleton arcs -
c     With max cost:              30%
c     Capacitated:                80%
c   Minimum arc capacity:          2
c   Maximum arc capacity:         10
c
c  *** Minimum cost flow ***
c
p min 60 267
n 1 4
n 2 8
n 3 10
n 4 5
n 5 6
n 6 2
n 7 3
n 8 7
n 9 23
n 10 9
n 11 4
n 12 2
n 13 5
n 14 6
n 15 12
n 16 1
n 17 8
n 18 1
n 19 1
n 20 5
n 21 8
n 22 6
n 23 5
n 24 1
n 25 6
n 26 4
n 27 2
n 28 13
n 29 4
n 30 3
n 31 9
n 32 9
n 33 6
n 34 9
n 35 1
n 36 6
n 37 9
n 38 3
n 39 14
n 40 6
n 41 12
n 42 8
n 43 5
n 44 3
n 45 5
n 46 11
n 47 11
n 48 2
n 49 -44
n 50 -11
n 51 -19
n 52 -17
n 53 -28
n 54 -19
n 55 -32
n 56 -47
n 57 -18
n 58 -23
n 59 -26
n 60 -19
a 1 56 0 4 100
a 1 59 0 4 12
a 1 51 0 5 7
a 1 57 0 303 45
a 1 53 0 303 30
a 1 50 0 303 15
a 1 55 0 6 59
a 2 56 0 8 100
a 2 49 0 8 100
a 2 55 0 2 16
a 2 53 0 4 5
a 2 59 0 6 30
a 2 54 0 7 32
a 2 58 0 303 50
a 2 51 0 8 83
a 3 55 0 10 76
a 3 60 0 303 63
a 3 56 0 9 29
a 3 53 0 3 94
a 3 52 0 6 25
a 3 49 0 3 73
a 3 50 0 6 100
a 4 58 0 5 10
a 4 60 0 5 100
a 4 54 0 8 19
a 4 50 0 303 48
a 4 51 0 303 42
a 4 53 0 303 18
a 4 49 0 2 59
a 5 50 0 6 100
a 5 58 0 6 35
a 5 51 0 8 67
a 6 55 0 2 66
a 6 51 0 2 14
a 6 53 0 303 31
a 6 59 0 303 11
a 6 49 0 9 94
a 7 56 0 3 100
a 7 55 0 3 100
a 7 57 0 9 19
a 7 51 0 3 60
a 7 52 0 3 31
a 7 50 0 2 76
a 7 58 0 7 87
a 7 53 0 4 41
a 8 55 0 7 77
a 8 56 0 303 2
a 8 50 0 303 67
a 8 51 0 6 33
a 8 58 0 4 20
a 8 59 0 4 15
a 8 54 0 5 35
a 8 57 0 303 3
a 9 49 0 23 48
a 9 52 0 23 78
a 9 54 0 7 76
a 9 50 0 5 59
a 9 58 0 9 46
a 9 59 0 8 42
a 9 51 0 7 9
a 9 55 0 2 45
a 10 51 0 9 100
a 10 58 0 9 100
a 10 57 0 7 47
a 10 54 0 3 36
a 10 59 0 10 15
a 10 52 0 2 88
a 10 53 0 5 78
a 11 52 0 4 100
a 11 59 0 303 22
a 11 54 0 9 44
a 11 53 0 9 61
a 11 58 0 303 94
a 11 51 0 10 72
a 11 49 0 303 67
a 12 59 0 2 96
a 12 55 0 2 100
a 12 52 0 5 19
a 12 50 0 303 39
a 12 58 0 10 74
a 12 56 0 2 65
a 13 49 0 5 88
a 13 56 0 303 28
a 13 52 0 10 14
a 14 54 0 6 100
a 14 57 0 6 52
a 14 50 0 8 7
a 14 52 0 3 22
a 14 58 0 4 9
a 14 51 0 8 39
a 15 49 0 12 100
a 15 59 0 12 99
a 15 51 0 4 57
a 15 52 0 5 94
a 15 50 0 8 68
a 15 55 0 303 37
a 16 58 0 2 94
a 16 51 0 2 95
a 16 49 0 10 69
a 17 53 0 8 89
a 17 59 0 303 77
a 17 54 0 2 58
a 17 50 0 9 4
a 18 50 0 2 26
a 18 53 0 2 87
a 18 51 0 3 33
a 18 56 0 6 59
a 18 49 0 10 9
a 18 59 0 3 44
a 18 54 0 3 95
a 18 58 0 9 16
a 18 55 0 8 34
a 19 58 0 303 37
a 19 55 0 2 60
a 19 52 0 4 43
a 19 49 0 8 58
a 19 51 0 4 77
a 19 53 0 303 83
a 20 59 0 5 100
a 20 60 0 5 18
a 20 57 0 6 28
a 20 54 0 2 96
a 20 50 0 10 98
a 20 49 0 303 31
a 20 55 0 4 41
a 21 49 0 8 3
a 21 53 0 8 100
a 21 59 0 2 60
a 22 54 0 6 100
a 22 49 0 6 100
a 22 57 0 4 51
a 22 58 0 6 45
a 22 52 0 303 42
a 22 53 0 8 20
a 22 51 0 8 9
a 22 50 0 8 86
a 22 56 0 8 19
a 22 55 0 10 77
a 23 56 0 303 62
a 23 59 0 5 94
a 23 49 0 4 99
a 23 55 0 7 24
a 23 58 0 9 28
a 24 54 0 2 2
a 24 59 0 303 62
a 24 57 0 4 16
a 24 53 0 5 12
a 25 60 0 6 17
a 25 52 0 6 83
a 25 51 0 7 18
a 25 56 0 6 7
a 25 58 0 9 39
a 25 57 0 7 48
a 26 59 0 4 46
a 26 58 0 4 81
a 26 55 0 5 79
a 26 49 0 2 88
a 26 50 0 7 47
a 26 52 0 9 55
a 27 52 0 2 52
a 27 57 0 2 83
a 27 51 0 3 45
a 27 58 0 6 17
a 27 49 0 10 98
a 27 55 0 7 20
a 27 56 0 303 22
a 27 59 0 2 41
a 28 56 0 13 100
a 28 50 0 13 14
a 28 49 0 2 55
a 29 58 0 4 100
a 29 59 0 4 58
a 29 50 0 6 50
a 29 56 0 303 40
a 29 53 0 8 95
a 29 49 0 303 95
a 29 57 0 4 91
a 30 60 0 3 27
a 30 52 0 3 67
a 30 51 0 303 29
a 30 55 0 5 60
a 30 49 0 303 64
a 30 56 0 9 20
a 31 55 0 9 44
a 31 58 0 9 100
a 31 57 0 303 90
a 32 52 0 9 100
a 32 54 0 9 3
a 32 59 0 2 44
a 32 55 0 5 9
a 32 58 0 303 35
a 32 56 0 303 49
a 32 57 0 8 50
a 33 57 0 6 92
a 33 55 0 6 42
a 33 54 0 4 85
a 33 51 0 7 57
a 33 58 0 3 36
a 33 59 0 8 1
a 33 52 0 303 57
a 33 50 0 2 72
a 34 59 0 9 29
a 34 53 0 9 65
a 34 51 0 7 13
a 34 57 0 9 5
a 34 50 0 303 68
a 34 49 0 5 8
a 34 55 0 303 87
a 35 59 0 2 35
a 35 55 0 2 35
a 35 50 0 8 9
a 35 56 0 4 75
a 35 54 0 10 64
a 35 52 0 6 56
a 35 51 0 2 53
a 35 49 0 10 47
a 36 60 0 303 100
a 36 51 0 6 15
a 36 52 0 8 46
a 36 49 0 6 15
a 36 56 0 303 11
a 37 53 0 9 50
a 37 55 0 9 47
a 37 58 0 5 45
a 37 49 0 9 3
a 37 50 0 6 95
a 37 56 0 3 94
a 38 58 0 3 66
a 38 52 0 3 75
a 38 56 0 303 88
a 38 55 0 303 3
a 38 57 0 303 45
a 38 59 0 8 54
a 39 57 0 14 100
a 39 55 0 14 52
a 39 58 0 303 14
a 39 51 0 8 33
a 39 56 0 9 84
a 39 52 0 3 77
a 40 49 0 6 41
a 40 57 0 6 2
a 40 58 0 4 24
a 40 51 0 8 82
a 41 58 0 303 30
a 41 56 0 12 100
a 41 53 0 6 54
a 42 53 0 8 21
a 42 51 0 8 100
a 42 50 0 6 74
a 42 58 0 6 48
a 43 56 0 5 100
a 43 59 0 5 100
a 43 51 0 6 11
a 44 60 0 303 11
a 44 49 0 3 87
a 44 55 0 8 61
a 44 51 0 8 83
a 45 49 0 303 37
a 45 56 0 5 58
a 45 54 0 303 52
a 45 53 0 10 34
a 46 50 0 11 54
a 46 53 0 11 96
a 47 54 0 11 45
a 47 56 0 11 20
a 48 55 0 2 28
a 48 58 0 2 55
